p tw 114 4561 1 
1 2 
1 3 
1 4 
1 5 
1 6 
1 7 
1 8 
1 9 
1 10 
1 11 
1 12 
1 13 
1 14 
1 15 
1 16 
1 17 
1 18 
1 19 
1 20 
1 21 
1 22 
1 23 
1 24 
1 25 
1 26 
1 27 
1 28 
1 29 
1 30 
1 31 
1 32 
1 33 
1 34 
1 35 
1 36 
1 37 
1 38 
1 39 
1 40 
1 41 
1 42 
1 43 
1 44 
1 45 
1 46 
1 47 
1 48 
1 49 
1 50 
1 51 
1 52 
1 53 
1 54 
1 55 
1 56 
1 57 
2 58 
2 59 
2 60 
2 61 
2 62 
2 63 
2 64 
2 65 
2 66 
2 67 
2 68 
2 69 
2 70 
2 71 
2 72 
2 73 
2 74 
2 75 
2 76 
2 77 
2 78 
2 79 
2 80 
2 81 
2 82 
2 83 
2 84 
2 85 
2 86 
2 87 
2 88 
2 89 
2 90 
2 91 
2 92 
2 93 
2 94 
2 95 
2 96 
2 97 
2 98 
2 99 
2 100 
2 101 
2 102 
2 103 
2 104 
2 105 
2 106 
2 107 
2 108 
2 109 
2 110 
2 111 
2 112 
2 113 
2 114 
1 59 
1 60 
1 61 
1 62 
1 63 
1 64 
1 65 
1 66 
2 58 
2 60 
2 67 
2 68 
2 69 
2 70 
2 71 
2 72 
3 58 
3 59 
3 73 
3 74 
3 75 
3 76 
3 77 
3 78 
4 58 
4 61 
4 84 
4 91 
4 97 
4 100 
4 103 
4 104 
5 58 
5 62 
5 79 
5 92 
5 93 
5 94 
5 95 
5 96 
6 58 
6 63 
6 80 
6 85 
6 98 
6 106 
6 111 
6 112 
7 58 
7 64 
7 81 
7 88 
7 99 
7 105 
7 113 
7 114 
8 58 
8 65 
8 82 
8 86 
8 89 
8 102 
8 107 
8 108 
9 58 
9 66 
9 83 
9 87 
9 90 
9 101 
9 109 
9 110 
10 59 
10 67 
10 87 
10 89 
10 94 
10 100 
10 112 
10 113 
11 59 
11 68 
11 81 
11 90 
11 93 
11 103 
11 106 
11 107 
12 59 
12 69 
12 79 
12 91 
12 99 
12 108 
12 110 
12 111 
13 59 
13 70 
13 80 
13 84 
13 95 
13 102 
13 109 
13 114 
14 59 
14 71 
14 82 
14 85 
14 92 
14 101 
14 104 
14 105 
15 59 
15 72 
15 83 
15 86 
15 88 
15 96 
15 97 
15 98 
16 60 
16 73 
16 85 
16 88 
16 94 
16 103 
16 108 
16 109 
17 60 
17 74 
17 80 
17 86 
17 93 
17 99 
17 100 
17 101 
18 60 
18 75 
18 79 
18 87 
18 97 
18 102 
18 105 
18 106 
19 60 
19 76 
19 81 
19 89 
19 95 
19 98 
19 104 
19 110 
20 60 
20 77 
20 83 
20 84 
20 92 
20 107 
20 111 
20 113 
21 60 
21 78 
21 82 
21 90 
21 91 
21 96 
21 112 
21 114 
22 61 
22 67 
22 73 
22 79 
22 80 
22 81 
22 82 
22 83 
23 61 
23 68 
23 74 
23 85 
23 96 
23 102 
23 110 
23 113 
24 61 
24 69 
24 75 
24 88 
24 95 
24 101 
24 107 
24 112 
25 61 
25 70 
25 76 
25 86 
25 90 
25 94 
25 105 
25 111 
26 61 
26 71 
26 77 
26 87 
26 93 
26 98 
26 108 
26 114 
27 61 
27 72 
27 78 
27 89 
27 92 
27 99 
27 106 
27 109 
28 62 
28 67 
28 74 
28 91 
28 98 
28 105 
28 107 
28 109 
29 63 
29 67 
29 75 
29 86 
29 92 
29 103 
29 110 
29 114 
30 64 
30 67 
30 76 
30 84 
30 96 
30 101 
30 106 
30 108 
31 65 
31 67 
31 77 
31 85 
31 90 
31 95 
31 97 
31 99 
32 66 
32 67 
32 78 
32 88 
32 93 
32 102 
32 104 
32 111 
33 62 
33 68 
33 73 
33 89 
33 97 
33 101 
33 111 
33 114 
34 63 
34 70 
34 73 
34 87 
34 96 
34 99 
34 104 
34 107 
35 64 
35 69 
35 73 
35 90 
35 92 
35 98 
35 100 
35 102 
36 65 
36 72 
36 73 
36 84 
36 93 
36 105 
36 110 
36 112 
37 66 
37 71 
37 73 
37 86 
37 91 
37 95 
37 106 
37 113 
38 62 
38 69 
38 78 
38 81 
38 84 
38 85 
38 86 
38 87 
39 62 
39 70 
39 77 
39 82 
39 88 
39 100 
39 106 
39 110 
40 62 
40 72 
40 75 
40 80 
40 90 
40 104 
40 108 
40 113 
41 62 
41 71 
41 76 
41 83 
41 99 
41 102 
41 103 
41 112 
42 63 
42 71 
42 74 
42 79 
42 84 
42 88 
42 89 
42 90 
43 63 
43 68 
43 78 
43 83 
43 95 
43 100 
43 105 
43 108 
44 65 
44 68 
44 76 
44 80 
44 87 
44 88 
44 91 
44 92 
45 65 
45 69 
45 74 
45 83 
45 94 
45 104 
45 106 
45 114 
46 66 
46 68 
46 75 
46 82 
46 84 
46 94 
46 98 
46 99 
47 64 
47 68 
47 77 
47 79 
47 86 
47 104 
47 109 
47 112 
48 64 
48 72 
48 74 
48 82 
48 87 
48 95 
48 103 
48 111 
49 66 
49 70 
49 74 
49 81 
49 92 
49 97 
49 108 
49 112 
50 63 
50 69 
50 76 
50 82 
50 93 
50 97 
50 109 
50 113 
51 63 
51 72 
51 77 
51 81 
51 91 
51 94 
51 101 
51 102 
52 66 
52 69 
52 77 
52 80 
52 89 
52 96 
52 103 
52 105 
53 66 
53 72 
53 76 
53 79 
53 85 
53 100 
53 107 
53 114 
54 64 
54 70 
54 75 
54 83 
54 85 
54 89 
54 91 
54 93 
55 64 
55 71 
55 78 
55 80 
55 94 
55 97 
55 107 
55 110 
56 65 
56 70 
56 78 
56 79 
56 98 
56 101 
56 103 
56 113 
57 65 
57 71 
57 75 
57 81 
57 96 
57 100 
57 109 
57 111 
